KNbO3                                   
   1.00000000000000     
     5.4285697937000004    0.0000000000000000    0.0000000000000000
    -2.7142848969000002    4.7012793475999999    0.0000000000000000
     0.0000000000000000    0.0000000000000000    7.1537910609688540
   K    Nb   O 
     3     3     9
Direct
  0.6666669849999991  0.3333329860000021  0.3182058777837611
  0.3333329860000021  0.6666669849999991  0.6515388937837656
  0.0000000000000000  0.0000000000000000  0.9848728627837602
  0.6666669849999991  0.3333329860000021  0.8254769337550911
  0.3333329860000021  0.6666669849999991  0.1588099037550919
  0.0000000000000000  0.0000000000000000  0.4921429047550916
  0.4983280089275013  0.9966559878550072  0.9721607651537170
  0.4983280089275013  0.5016720200724976  0.9721607651537170
  0.0033440411449916  0.5016720200724976  0.9721607651537170
  0.1649949939275075  0.3299889748550058  0.3054947341537186
  0.1649949939275075  0.8350050060724925  0.3054947341537186
  0.6700110251449942  0.8350050060724925  0.3054947341537186
  0.8316609649275009  0.6633230028550088  0.6388277501537232
  0.8316609649275009  0.1683390050724967  0.6388277501537232
  0.3366770271449937  0.1683390050724967  0.6388277501537232
 
  0.00000000E+00  0.00000000E+00  0.00000000E+00
  0.00000000E+00  0.00000000E+00  0.00000000E+00
  0.00000000E+00  0.00000000E+00  0.00000000E+00
  0.00000000E+00  0.00000000E+00  0.00000000E+00
  0.00000000E+00  0.00000000E+00  0.00000000E+00
  0.00000000E+00  0.00000000E+00  0.00000000E+00
  0.00000000E+00  0.00000000E+00  0.00000000E+00
  0.00000000E+00  0.00000000E+00  0.00000000E+00
  0.00000000E+00  0.00000000E+00  0.00000000E+00
  0.00000000E+00  0.00000000E+00  0.00000000E+00
  0.00000000E+00  0.00000000E+00  0.00000000E+00
  0.00000000E+00  0.00000000E+00  0.00000000E+00
  0.00000000E+00  0.00000000E+00  0.00000000E+00
  0.00000000E+00  0.00000000E+00  0.00000000E+00
  0.00000000E+00  0.00000000E+00  0.00000000E+00
