3                                       
   1.00000000000000     
     5.5416646003999999    0.0000000000000000    0.0000000000000000
    -2.7708299159999998    4.7992181935999998    0.0000000000000000
     0.0000000000000000    0.0000000000000000    7.0399049961074152
   K    Nb   O 
     3     3     9
Direct
  0.6666669849999991  0.3333329860000021  0.3183763116748608
  0.3333329860000021  0.6666669849999991  0.6517093276748653
  0.0000000000000000  0.0000000000000000  0.9850432966748599
  0.6666669849999991  0.3333329860000021  0.8270097931056171
  0.3333329860000021  0.6666669849999991  0.1603427631056178
  0.0000000000000000  0.0000000000000000  0.4936757641056175
  0.4992057072643448  0.9984113845286871  0.9715930007398370
  0.4992057072643448  0.5007943217356541  0.9715930007398370
  0.0015886444713118  0.5007943217356541  0.9715930007398370
  0.1658726922643510  0.3317443715286856  0.3049269697398387
  0.1658726922643510  0.8341273077356490  0.3049269697398387
  0.6682556284713144  0.8341273077356490  0.3049269697398387
  0.8325386632643443  0.6650783995286886  0.6382599857398432
  0.8325386632643443  0.1674613067356532  0.6382599857398432
  0.3349216304713138  0.1674613067356532  0.6382599857398432
 
  0.00000000E+00  0.00000000E+00  0.00000000E+00
  0.00000000E+00  0.00000000E+00  0.00000000E+00
  0.00000000E+00  0.00000000E+00  0.00000000E+00
  0.00000000E+00  0.00000000E+00  0.00000000E+00
  0.00000000E+00  0.00000000E+00  0.00000000E+00
  0.00000000E+00  0.00000000E+00  0.00000000E+00
  0.00000000E+00  0.00000000E+00  0.00000000E+00
  0.00000000E+00  0.00000000E+00  0.00000000E+00
  0.00000000E+00  0.00000000E+00  0.00000000E+00
  0.00000000E+00  0.00000000E+00  0.00000000E+00
  0.00000000E+00  0.00000000E+00  0.00000000E+00
  0.00000000E+00  0.00000000E+00  0.00000000E+00
  0.00000000E+00  0.00000000E+00  0.00000000E+00
  0.00000000E+00  0.00000000E+00  0.00000000E+00
  0.00000000E+00  0.00000000E+00  0.00000000E+00
