k1 nb1 o3                               
   1.00000000000000     
     3.9695232767730242    0.0000000000000000    0.0000000000000000
     0.0000000000000000    3.9695232767730242    0.0000000000000000
     0.0000000000000000    0.0000000000000000    4.0586320008164609
   K    Nb   O 
     1     1     3
Direct
  0.5000000000000000  0.5000000000000000  0.4987369701043534
  0.0000000000000000  0.0000000000000000  0.0131039915542956
  0.5000000000000000  0.0000000000000000  0.9752624063366326
  0.0000000000000000  0.5000000000000000  0.9752624063366326
  0.0000000000000000  0.0000000000000000  0.4724351396680788
 
  0.00000000E+00  0.00000000E+00  0.00000000E+00
  0.00000000E+00  0.00000000E+00  0.00000000E+00
  0.00000000E+00  0.00000000E+00  0.00000000E+00
  0.00000000E+00  0.00000000E+00  0.00000000E+00
  0.00000000E+00  0.00000000E+00  0.00000000E+00
