k2 nb2 o6                               
   1.00000000000000     
     3.8031645371193190    0.0000000000000000    0.0000000000000000
     0.0000000000000000    5.4531648626509144    0.0000000000000000
     0.0000000000000000    0.0000000000000000    5.8873240637515325
   K    Nb   O 
     2     2     6
Direct
  0.5000000000000000  0.0000000000000000  0.4896148429427739
  0.5000000000000000  0.5000000000000000  0.9896148019427741
 -0.0000000000000000  0.0000000000000000  0.0049919214935188
 -0.0000000000000000  0.5000000000000000  0.5049919244935226
 -0.0000000000000000  0.2493282527533488  0.2217722071943312
  0.0000000000000000  0.7506717272466495  0.2217722071943312
 -0.0000000000000000  0.7493282727533505  0.7217722271943329
  0.0000000000000000  0.2506717472466512  0.7217722271943329
  0.5000000000000000  0.0000000000000000  0.9538498551750696
  0.5000000000000000  0.5000000000000000  0.4538498141750697
 
  0.00000000E+00  0.00000000E+00  0.00000000E+00
  0.00000000E+00  0.00000000E+00  0.00000000E+00
  0.00000000E+00  0.00000000E+00  0.00000000E+00
  0.00000000E+00  0.00000000E+00  0.00000000E+00
  0.00000000E+00  0.00000000E+00  0.00000000E+00
  0.00000000E+00  0.00000000E+00  0.00000000E+00
  0.00000000E+00  0.00000000E+00  0.00000000E+00
  0.00000000E+00  0.00000000E+00  0.00000000E+00
  0.00000000E+00  0.00000000E+00  0.00000000E+00
  0.00000000E+00  0.00000000E+00  0.00000000E+00
