KNbO3                                   
   1.00000000000000     
     5.4851174355000003    0.0000000000000000    0.0000000000000000
    -2.7425599098000002    4.7502531065999998    0.0000000000000000
     0.0000000000000000    0.0000000000000000    7.0952372148046621
   K    Nb   O 
     3     3     9
Direct
  0.6666669849999991  0.3333329860000021  0.3182504982862611
  0.3333329860000021  0.6666669849999991  0.6515835142862656
  0.0000000000000000  0.0000000000000000  0.9849174832862602
  0.6666669849999991  0.3333329860000021  0.8261933759635411
  0.3333329860000021  0.6666669849999991  0.1595263459635419
  0.0000000000000000  0.0000000000000000  0.4928593469635416
  0.4987445383459885  0.9974890466919888  0.9719070775833956
  0.4987445383459885  0.5012554906540103  0.9719070775833956
  0.0025109823080101  0.5012554906540103  0.9719070775833956
  0.1654115233459947  0.3308220336919874  0.3052410465833972
  0.1654115233459947  0.8345884766540053  0.3052410465833972
  0.6691779663080126  0.8345884766540053  0.3052410465833972
  0.8320774943459881  0.6641560616919904  0.6385740625834018
  0.8320774943459881  0.1679224756540094  0.6385740625834018
  0.3358439683080121  0.1679224756540094  0.6385740625834018
 
  0.00000000E+00  0.00000000E+00  0.00000000E+00
  0.00000000E+00  0.00000000E+00  0.00000000E+00
  0.00000000E+00  0.00000000E+00  0.00000000E+00
  0.00000000E+00  0.00000000E+00  0.00000000E+00
  0.00000000E+00  0.00000000E+00  0.00000000E+00
  0.00000000E+00  0.00000000E+00  0.00000000E+00
  0.00000000E+00  0.00000000E+00  0.00000000E+00
  0.00000000E+00  0.00000000E+00  0.00000000E+00
  0.00000000E+00  0.00000000E+00  0.00000000E+00
  0.00000000E+00  0.00000000E+00  0.00000000E+00
  0.00000000E+00  0.00000000E+00  0.00000000E+00
  0.00000000E+00  0.00000000E+00  0.00000000E+00
  0.00000000E+00  0.00000000E+00  0.00000000E+00
  0.00000000E+00  0.00000000E+00  0.00000000E+00
  0.00000000E+00  0.00000000E+00  0.00000000E+00
