New structure                           
   1.00000000000000     
     3.9500142383240000    0.0000000000000000    0.0000000000000000
     0.0000000000000000    3.8832440185699997    0.0000000000000000
    -0.0119255044000000    0.0000000000000000    4.0926460255154566
   K    Nb   O 
     1     1     3
Direct
  0.8941252432238938  0.0000000000000000  0.8796566359360907
  0.4008476278379524  0.5000000000000000  0.3620270044704577
  0.3793122753532281  0.0000000000000000  0.4126997883180821
  0.3890652925705640  0.5000000000000000  0.9086176935856735
  0.8856495610143458  0.5000000000000000  0.4039988556896860
 
  0.00000000E+00  0.00000000E+00  0.00000000E+00
  0.00000000E+00  0.00000000E+00  0.00000000E+00
  0.00000000E+00  0.00000000E+00  0.00000000E+00
  0.00000000E+00  0.00000000E+00  0.00000000E+00
  0.00000000E+00  0.00000000E+00  0.00000000E+00
