k1 nb1 o3                               
   1.00000000000000     
     3.9298280440000002    0.0000000000000000    0.0000000000000000
     0.0000000000000000    3.9298280440000002    0.0000000000000000
     0.0000000000000000    0.0000000000000000    4.0996537452986468
   K    Nb   O 
     1     1     3
Direct
  0.5000000000000000  0.5000000000000000  0.5001308275692016
  0.0000000000000000  0.0000000000000000  0.0179208305380524
  0.5000000000000000  0.0000000000000000  0.9730174895702206
  0.0000000000000000  0.5000000000000000  0.9730174895702206
  0.0000000000000000  0.0000000000000000  0.4707142767522978
 
  0.00000000E+00  0.00000000E+00  0.00000000E+00
  0.00000000E+00  0.00000000E+00  0.00000000E+00
  0.00000000E+00  0.00000000E+00  0.00000000E+00
  0.00000000E+00  0.00000000E+00  0.00000000E+00
  0.00000000E+00  0.00000000E+00  0.00000000E+00
