k1 nb1 o3                               
   1.00000000000000     
     4.0489137419999999    0.0000000000000000    0.0000000000000000
     0.0000000000000000    4.0489137419999999    0.0000000000000000
     0.0000000000000000    0.0000000000000000    3.9961903544585380
   K    Nb   O 
     1     1     3
Direct
  0.5000000000000000  0.5000000000000000  0.4939338755199216
  0.0000000000000000  0.0000000000000000  0.0048838075594375
  0.5000000000000000  0.0000000000000000  0.9797916852683315
  0.0000000000000000  0.5000000000000000  0.9797916852683315
  0.0000000000000000  0.0000000000000000  0.4763998603839781
 
  0.00000000E+00  0.00000000E+00  0.00000000E+00
  0.00000000E+00  0.00000000E+00  0.00000000E+00
  0.00000000E+00  0.00000000E+00  0.00000000E+00
  0.00000000E+00  0.00000000E+00  0.00000000E+00
  0.00000000E+00  0.00000000E+00  0.00000000E+00
