k2 nb2 o6                               
   1.00000000000000     
     3.9220134289042976    0.0000000000000000    0.0000000000000000
     0.0000000000000000    5.6235762646087553    0.0000000000000000
     0.0000000000000000    0.0000000000000000    5.7372021980484620
   K    Nb   O 
     2     2     6
Direct
  0.5000000000000000  0.0000000000000000  0.4869197585551888
  0.5000000000000000  0.5000000000000000  0.9869197175551889
  0.0000000000000000  0.0000000000000000  0.9998206390343825
  0.0000000000000000  0.5000000000000000  0.4998206420343863
  0.0000000000000000  0.2485689399458479  0.2200879006554359
  0.0000000000000000  0.7514310400541504  0.2200879006554359
  0.0000000000000000  0.7485689599458496  0.7200879206554376
  0.0000000000000000  0.2514310600541521  0.7200879206554376
  0.5000000000000000  0.0000000000000000  0.9650848350995673
  0.5000000000000000  0.5000000000000000  0.4650847940995675
 
  0.00000000E+00  0.00000000E+00  0.00000000E+00
  0.00000000E+00  0.00000000E+00  0.00000000E+00
  0.00000000E+00  0.00000000E+00  0.00000000E+00
  0.00000000E+00  0.00000000E+00  0.00000000E+00
  0.00000000E+00  0.00000000E+00  0.00000000E+00
  0.00000000E+00  0.00000000E+00  0.00000000E+00
  0.00000000E+00  0.00000000E+00  0.00000000E+00
  0.00000000E+00  0.00000000E+00  0.00000000E+00
  0.00000000E+00  0.00000000E+00  0.00000000E+00
  0.00000000E+00  0.00000000E+00  0.00000000E+00
