New structure                           
   1.00000000000000     
     4.1918518447519997    0.0000000000000000    0.0000000000000000
     0.0000000000000000    4.1209936523600001    0.0000000000000000
    -0.0119255044000000    0.0000000000000000    3.9120209691846077
   K    Nb   O 
     1     1     3
Direct
  0.9091153536904767  0.0000000000000000  0.8929382442592035
  0.4250972019272786  0.5000000000000000  0.3929192527591969
  0.3871820381226728  0.0000000000000000  0.3937800922693377
  0.3653004834630350  0.5000000000000000  0.8935619984611028
  0.8623049227965279  0.5000000000000000  0.3938003902511488
 
  0.00000000E+00  0.00000000E+00  0.00000000E+00
  0.00000000E+00  0.00000000E+00  0.00000000E+00
  0.00000000E+00  0.00000000E+00  0.00000000E+00
  0.00000000E+00  0.00000000E+00  0.00000000E+00
  0.00000000E+00  0.00000000E+00  0.00000000E+00
