New structure
1.0
        5.6547632217         0.0000000000         0.0000000000
       -2.8273816109         4.8971686024         0.0000000000
        0.0000000000         0.0000000000         6.9431400299
    K   Nb    O
    3    3    9
Direct
     0.666667003         0.333332995         0.318587003
     0.333333000         0.666667012         0.651920015
     0.000000000        -0.000000000         0.985253990
     0.666667003         0.333332995         0.829007020
     0.333333000         0.666667012         0.162339999
    -0.000000000        -0.000000000         0.495673012
     0.500459042         0.000918000         0.970856998
     0.500459013         0.499541001         0.970856998
     0.999082030         0.499541001         0.970856998
     0.167126005         0.334250999         0.304191007
     0.167125974         0.832873996         0.304191007
     0.665748992         0.832873996         0.304191007
     0.833792002         0.667585016         0.637523986
     0.833791962         0.166207994         0.637523986
     0.332415021         0.166207994         0.637523986