New structure                           
   1.00000000000000     
     3.9903205060620000    0.0000000000000000    0.0000000000000000
     0.0000000000000000    3.9228689575350000    0.0000000000000000
    -0.0119255044000000    0.0000000000000000    4.0559389891779150
   K    Nb   O 
     1     1     3
Direct
  0.8965706198126898  0.0000000000000000  0.8837166491409744
  0.4068059078687353  0.5000000000000000  0.3676133244439969
  0.3778310479471360  0.0000000000000000  0.4075100444298406
  0.3858678660102282  0.5000000000000000  0.9066256271685632
  0.8819245583612160  0.5000000000000000  0.4015343328166290
 
  0.00000000E+00  0.00000000E+00  0.00000000E+00
  0.00000000E+00  0.00000000E+00  0.00000000E+00
  0.00000000E+00  0.00000000E+00  0.00000000E+00
  0.00000000E+00  0.00000000E+00  0.00000000E+00
  0.00000000E+00  0.00000000E+00  0.00000000E+00
