k1 nb1 o3                               
   1.00000000000000     
     3.8901328110000000    0.0000000000000000    0.0000000000000000
     0.0000000000000000    3.8901328110000000    0.0000000000000000
     0.0000000000000000    0.0000000000000000    4.1668239387146953
   K    Nb   O 
     1     1     3
Direct
  0.5000000000000000  0.5000000000000000  0.5066756659757985
  0.0000000000000000  0.0000000000000000  0.0244857561931013
  0.5000000000000000  0.0000000000000000  0.9687573342858542
  0.0000000000000000  0.5000000000000000  0.9687573342858542
  0.0000000000000000  0.0000000000000000  0.4661248232593920
 
  0.00000000E+00  0.00000000E+00  0.00000000E+00
  0.00000000E+00  0.00000000E+00  0.00000000E+00
  0.00000000E+00  0.00000000E+00  0.00000000E+00
  0.00000000E+00  0.00000000E+00  0.00000000E+00
  0.00000000E+00  0.00000000E+00  0.00000000E+00
