KNbO3                                   
   1.00000000000000     
     5.8244056702000000    0.0000000000000000    0.0000000000000000
    -2.9122049808999999    5.0440869889000002    0.0000000000000000
     0.0000000000000000    0.0000000000000000    6.8420265091390098
   K    Nb   O 
     3     3     9
Direct
  0.6666669849999991  0.3333329860000021  0.3203983365002898
  0.3333329860000021  0.6666669849999991  0.6537313525002943
  0.0000000000000000  0.0000000000000000  0.9870653215002889
  0.6666669849999991  0.3333329860000021  0.8330095228799053
  0.3333329860000021  0.6666669849999991  0.1663424928799060
  0.0000000000000000  0.0000000000000000  0.4996754938799057
  0.5031031680179652  0.0062063060359279  0.9689190825399336
  0.5031031680179652  0.4968968609820337  0.9689190825399336
  0.9937937229640710  0.4968968609820337  0.9689190825399336
  0.1697701530179714  0.3395392930359264  0.3022530515399353
  0.1697701530179714  0.8302298469820286  0.3022530515399353
  0.6604607069640736  0.8302298469820286  0.3022530515399353
  0.8364361240179647  0.6728733210359295  0.6355860675399398
  0.8364361240179647  0.1635638459820328  0.6355860675399398
  0.3271267089640730  0.1635638459820328  0.6355860675399398
 
  0.00000000E+00  0.00000000E+00  0.00000000E+00
  0.00000000E+00  0.00000000E+00  0.00000000E+00
  0.00000000E+00  0.00000000E+00  0.00000000E+00
  0.00000000E+00  0.00000000E+00  0.00000000E+00
  0.00000000E+00  0.00000000E+00  0.00000000E+00
  0.00000000E+00  0.00000000E+00  0.00000000E+00
  0.00000000E+00  0.00000000E+00  0.00000000E+00
  0.00000000E+00  0.00000000E+00  0.00000000E+00
  0.00000000E+00  0.00000000E+00  0.00000000E+00
  0.00000000E+00  0.00000000E+00  0.00000000E+00
  0.00000000E+00  0.00000000E+00  0.00000000E+00
  0.00000000E+00  0.00000000E+00  0.00000000E+00
  0.00000000E+00  0.00000000E+00  0.00000000E+00
  0.00000000E+00  0.00000000E+00  0.00000000E+00
  0.00000000E+00  0.00000000E+00  0.00000000E+00
