KNO_ortho_0
   1.00
     3.9616297261659574    0.0000000000000000    0.0000000000000000
     0.0000000000000000    5.6803800652613692    0.0000000000000000
     0.0000000000000000    0.0000000000000000    5.6968490939717906
   K    Nb   O
     2     2     6
Direct
  0.5000000000000000  0.0000000000000000  0.4870266843449116
  0.5000000000000000  0.5000000000000000  0.9870266433449117
  0.0000000000000000  0.0000000000000000  0.9991549624699800
  0.0000000000000000  0.5000000000000000  0.4991549654699838
  0.0000000000000000  0.2478746627170594  0.2194879482353969
  0.0000000000000000  0.7521253172829390  0.2194879482353969
  0.0000000000000000  0.7478746827170610  0.7194879682353985
  0.0000000000000000  0.2521253372829406  0.7194879682353985
  0.5000000000000000  0.0000000000000000  0.9668434907143322
  0.5000000000000000  0.5000000000000000  0.4668434497143323