New structure                           
   1.00000000000000     
     4.1112393092759998    0.0000000000000000    0.0000000000000000
     0.0000000000000000    4.0417437744299995    0.0000000000000000
    -0.0119255044000000    0.0000000000000000    3.9436735380582535
   K    Nb   O 
     1     1     3
Direct
  0.9040140463312960  0.0000000000000000  0.8912298038819040
  0.4197203137241294  0.5000000000000000  0.3887619540391680
  0.3825271220695487  0.0000000000000000  0.3964276928379191
  0.3726015056806597  0.5000000000000000  0.8958149079546418
  0.8701370121943713  0.5000000000000000  0.3947656192863641
 
  0.00000000E+00  0.00000000E+00  0.00000000E+00
  0.00000000E+00  0.00000000E+00  0.00000000E+00
  0.00000000E+00  0.00000000E+00  0.00000000E+00
  0.00000000E+00  0.00000000E+00  0.00000000E+00
  0.00000000E+00  0.00000000E+00  0.00000000E+00
