k1 nb1 o3                               
   1.00000000000000     
     4.0092185100000002    0.0000000000000000    0.0000000000000000
     0.0000000000000000    4.0092185100000002    0.0000000000000000
     0.0000000000000000    0.0000000000000000    4.0209638439692519
   K    Nb   O 
     1     1     3
Direct
  0.5000000000000000  0.5000000000000000  0.4961616484291724
  0.0000000000000000  0.0000000000000000  0.0083223243660768
  0.5000000000000000  0.0000000000000000  0.9777494107328337
  0.0000000000000000  0.5000000000000000  0.9777494107328337
  0.0000000000000000  0.0000000000000000  0.4748181197390977
 
  0.00000000E+00  0.00000000E+00  0.00000000E+00
  0.00000000E+00  0.00000000E+00  0.00000000E+00
  0.00000000E+00  0.00000000E+00  0.00000000E+00
  0.00000000E+00  0.00000000E+00  0.00000000E+00
  0.00000000E+00  0.00000000E+00  0.00000000E+00
