k1 nb1 o3                               
   1.00000000000000     
     3.8107423460000001    0.0000000000000000    0.0000000000000000
     0.0000000000000000    3.8107423460000001    0.0000000000000000
     0.0000000000000000    0.0000000000000000    4.3820219774440003
   K    Nb   O 
     1     1     3
Direct
  0.5000000000000000  0.5000000000000000  0.5214001077449267
 -0.0000000000000000 -0.0000000000000000  0.0396819202160674
  0.5000000000000000  0.0000000000000000  0.9600411691695171
  0.0000000000000000  0.5000000000000000  0.9600411691695171
  0.0000000000000000  0.0000000000000000  0.4536365476999645
 
  0.00000000E+00  0.00000000E+00  0.00000000E+00
  0.00000000E+00  0.00000000E+00  0.00000000E+00
  0.00000000E+00  0.00000000E+00  0.00000000E+00
  0.00000000E+00  0.00000000E+00  0.00000000E+00
  0.00000000E+00  0.00000000E+00  0.00000000E+00
