KNbO3                                   
   1.00000000000000     
     5.7113108634999996    0.0000000000000000    0.0000000000000000
    -2.8556549548999999    4.9461394708000004    0.0000000000000000
     0.0000000000000000    0.0000000000000000    6.9031595696183858
   K    Nb   O 
     3     3     9
Direct
  0.6666669849999991  0.3333329860000021  0.3188231692583727
  0.3333329860000021  0.6666669849999991  0.6521561852583773
  0.0000000000000000  0.0000000000000000  0.9854901542583718
  0.6666669849999991  0.3333329860000021  0.8302650207422602
  0.3333329860000021  0.6666669849999991  0.1635979907422609
  0.0000000000000000  0.0000000000000000  0.4969309917422606
  0.5012501803019376  0.0025003306038798  0.9703589723331163
  0.5012501803019376  0.4987498486980613  0.9703589723331163
  0.9974996983961191  0.4987498486980613  0.9703589723331163
  0.1679171653019438  0.3358333176038784  0.3036929413331180
  0.1679171653019438  0.8320828346980562  0.3036929413331180
  0.6641666823961216  0.8320828346980562  0.3036929413331180
  0.8345831363019371  0.6691673456038814  0.6370259573331225
  0.8345831363019371  0.1654168336980604  0.6370259573331225
  0.3308326843961211  0.1654168336980604  0.6370259573331225
 
  0.00000000E+00  0.00000000E+00  0.00000000E+00
  0.00000000E+00  0.00000000E+00  0.00000000E+00
  0.00000000E+00  0.00000000E+00  0.00000000E+00
  0.00000000E+00  0.00000000E+00  0.00000000E+00
  0.00000000E+00  0.00000000E+00  0.00000000E+00
  0.00000000E+00  0.00000000E+00  0.00000000E+00
  0.00000000E+00  0.00000000E+00  0.00000000E+00
  0.00000000E+00  0.00000000E+00  0.00000000E+00
  0.00000000E+00  0.00000000E+00  0.00000000E+00
  0.00000000E+00  0.00000000E+00  0.00000000E+00
  0.00000000E+00  0.00000000E+00  0.00000000E+00
  0.00000000E+00  0.00000000E+00  0.00000000E+00
  0.00000000E+00  0.00000000E+00  0.00000000E+00
  0.00000000E+00  0.00000000E+00  0.00000000E+00
  0.00000000E+00  0.00000000E+00  0.00000000E+00
