k2 nb2 o6                               
   1.00000000000000     
     4.0012460234276173    0.0000000000000000    0.0000000000000000
     0.0000000000000000    5.7371838659139831    0.0000000000000000
     0.0000000000000000    0.0000000000000000    5.6617452508489450
   K    Nb   O 
     2     2     6
Direct
  0.5000000000000000  0.0000000000000000  0.4866610262232740
  0.5000000000000000  0.5000000000000000  0.9866609852232742
  0.0000000000000000  0.0000000000000000  0.9989239942763604
  0.0000000000000000  0.5000000000000000  0.4989239972763642
  0.0000000000000000  0.2472358956582923  0.2189046151828222
  0.0000000000000000  0.7527640843417061  0.2189046151828222
  0.0000000000000000  0.7472359156582939  0.7189046351828239
  0.0000000000000000  0.2527641043417077  0.7189046351828239
  0.5000000000000000  0.0000000000000000  0.9686067831347316
  0.5000000000000000  0.5000000000000000  0.4686067421347317
 
  0.00000000E+00  0.00000000E+00  0.00000000E+00
  0.00000000E+00  0.00000000E+00  0.00000000E+00
  0.00000000E+00  0.00000000E+00  0.00000000E+00
  0.00000000E+00  0.00000000E+00  0.00000000E+00
  0.00000000E+00  0.00000000E+00  0.00000000E+00
  0.00000000E+00  0.00000000E+00  0.00000000E+00
  0.00000000E+00  0.00000000E+00  0.00000000E+00
  0.00000000E+00  0.00000000E+00  0.00000000E+00
  0.00000000E+00  0.00000000E+00  0.00000000E+00
  0.00000000E+00  0.00000000E+00  0.00000000E+00
