New structure                           
   1.00000000000000     
     3.9097079705859996    0.0000000000000000    0.0000000000000000
     0.0000000000000000    3.8436190796049998    0.0000000000000000
    -0.0119255044000000    0.0000000000000000    4.1334964075577396
   K    Nb   O 
     1     1     3
Direct
  0.8919035752118729  0.0000000000000000  0.8769630506727570
  0.3951329776407193  0.5000000000000000  0.3568569828121096
  0.3835043737443282  0.0000000000000000  0.4174223011241562
  0.3901392087044775  0.5000000000000000  0.9105953926141894
  0.8883198646986143  0.5000000000000000  0.4051622507767847
 
  0.00000000E+00  0.00000000E+00  0.00000000E+00
  0.00000000E+00  0.00000000E+00  0.00000000E+00
  0.00000000E+00  0.00000000E+00  0.00000000E+00
  0.00000000E+00  0.00000000E+00  0.00000000E+00
  0.00000000E+00  0.00000000E+00  0.00000000E+00
