New structure                           
   1.00000000000000     
     4.0709330415379998    0.0000000000000000    0.0000000000000000
     0.0000000000000000    4.0021188354649997    0.0000000000000000
    -0.0119255044000000    0.0000000000000000    3.9789259250424212
   K    Nb   O 
     1     1     3
Direct
  0.9010690920449090  0.0000000000000000  0.8877558028760549
  0.4159639652661730  0.5000000000000000  0.3801040832890482
  0.3799080047305778  0.0000000000000000  0.4011598036359003
  0.3779317806543593  0.5000000000000000  0.9004361419277175
  0.8741271573039647  0.5000000000000000  0.3975441462712833
 
  0.00000000E+00  0.00000000E+00  0.00000000E+00
  0.00000000E+00  0.00000000E+00  0.00000000E+00
  0.00000000E+00  0.00000000E+00  0.00000000E+00
  0.00000000E+00  0.00000000E+00  0.00000000E+00
  0.00000000E+00  0.00000000E+00  0.00000000E+00
