k1 nb1 o3                               
   1.00000000000000     
     3.8504375780000002    0.0000000000000000    0.0000000000000000
     0.0000000000000000    3.8504375780000002    0.0000000000000000
     0.0000000000000000    0.0000000000000000    4.2620452624492744
   K    Nb   O 
     1     1     3
Direct
  0.5000000000000000  0.5000000000000000  0.5128169557306503
  0.0000000000000000  0.0000000000000000  0.0320960066327503
  0.5000000000000000  0.0000000000000000  0.9646404726830697
  0.0000000000000000  0.5000000000000000  0.9646404726830697
  0.0000000000000000  0.0000000000000000  0.4606070062704457
 
  0.00000000E+00  0.00000000E+00  0.00000000E+00
  0.00000000E+00  0.00000000E+00  0.00000000E+00
  0.00000000E+00  0.00000000E+00  0.00000000E+00
  0.00000000E+00  0.00000000E+00  0.00000000E+00
  0.00000000E+00  0.00000000E+00  0.00000000E+00
