KNbO3                                   
   1.00000000000000     
     5.8809533118999999    0.0000000000000000    0.0000000000000000
    -2.9404749870000000    5.0930520759000002    0.0000000000000000
     0.0000000000000000    0.0000000000000000    6.8161089272934250
   K    Nb   O 
     3     3     9
Direct
  0.6666669849999991  0.3333329860000021  0.3211396003897491
  0.3333329860000021  0.6666669849999991  0.6544726163897536
  0.0000000000000000  0.0000000000000000  0.9878065853897482
  0.6666669849999991  0.3333329860000021  0.8343463353757414
  0.3333329860000021  0.6666669849999991  0.1676793053757422
  0.0000000000000000  0.0000000000000000  0.5010123063757419
  0.5041788021715661  0.0083575743431368  0.9682263904115018
  0.5041788021715661  0.4958212268284328  0.9682263904115018
  0.9916424546568621  0.4958212268284328  0.9682263904115018
  0.1708457871715723  0.3416905613431354  0.3015603594114964
  0.1708457871715723  0.8291542128284277  0.3015603594114964
  0.6583094386568646  0.8291542128284277  0.3015603594114964
  0.8375117581715656  0.6750245893431384  0.6348933754115080
  0.8375117581715656  0.1624882118284319  0.6348933754115080
  0.3249754406568641  0.1624882118284319  0.6348933754115080
 
  0.00000000E+00  0.00000000E+00  0.00000000E+00
  0.00000000E+00  0.00000000E+00  0.00000000E+00
  0.00000000E+00  0.00000000E+00  0.00000000E+00
  0.00000000E+00  0.00000000E+00  0.00000000E+00
  0.00000000E+00  0.00000000E+00  0.00000000E+00
  0.00000000E+00  0.00000000E+00  0.00000000E+00
  0.00000000E+00  0.00000000E+00  0.00000000E+00
  0.00000000E+00  0.00000000E+00  0.00000000E+00
  0.00000000E+00  0.00000000E+00  0.00000000E+00
  0.00000000E+00  0.00000000E+00  0.00000000E+00
  0.00000000E+00  0.00000000E+00  0.00000000E+00
  0.00000000E+00  0.00000000E+00  0.00000000E+00
  0.00000000E+00  0.00000000E+00  0.00000000E+00
  0.00000000E+00  0.00000000E+00  0.00000000E+00
  0.00000000E+00  0.00000000E+00  0.00000000E+00
