k1 nb1 o3                               
   1.00000000000000     
     4.0886089749999996    0.0000000000000000    0.0000000000000000
     0.0000000000000000    4.0886089749999996    0.0000000000000000
     0.0000000000000000    0.0000000000000000    3.9699753029720357
   K    Nb   O 
     1     1     3
Direct
  0.5000000000000000  0.5000000000000000  0.4918080593427447
  0.0000000000000000  0.0000000000000000  0.0008552796269257
  0.5000000000000000  0.0000000000000000  0.9817105427687878
  0.0000000000000000  0.5000000000000000  0.9817105427687878
  0.0000000000000000  0.0000000000000000  0.4787164894927400
 
  0.00000000E+00  0.00000000E+00  0.00000000E+00
  0.00000000E+00  0.00000000E+00  0.00000000E+00
  0.00000000E+00  0.00000000E+00  0.00000000E+00
  0.00000000E+00  0.00000000E+00  0.00000000E+00
  0.00000000E+00  0.00000000E+00  0.00000000E+00
