k2 nb2 o6                               
   1.00000000000000     
     4.0408623206892766    0.0000000000000000    0.0000000000000000
     0.0000000000000000    5.7939876665665970    0.0000000000000000
     0.0000000000000000    0.0000000000000000    5.6286161623361401
   K    Nb   O 
     2     2     6
Direct
  0.5000000000000000  0.0000000000000000  0.4865188814233434
  0.5000000000000000  0.5000000000000000  0.9865188404233436
  0.0000000000000000  0.0000000000000000  0.9990800310874448
  0.0000000000000000  0.5000000000000000  0.4990800340874486
  0.0000000000000000  0.2464410713788894  0.2182578306181711
  0.0000000000000000  0.7535589086211090  0.2182578306181711
  0.0000000000000000  0.7464410913788910  0.7182578506181727
  0.0000000000000000  0.2535589286211106  0.7182578506181727
  0.5000000000000000  0.0000000000000000  0.9698864602528801
  0.5000000000000000  0.5000000000000000  0.4698864192528802
 
  0.00000000E+00  0.00000000E+00  0.00000000E+00
  0.00000000E+00  0.00000000E+00  0.00000000E+00
  0.00000000E+00  0.00000000E+00  0.00000000E+00
  0.00000000E+00  0.00000000E+00  0.00000000E+00
  0.00000000E+00  0.00000000E+00  0.00000000E+00
  0.00000000E+00  0.00000000E+00  0.00000000E+00
  0.00000000E+00  0.00000000E+00  0.00000000E+00
  0.00000000E+00  0.00000000E+00  0.00000000E+00
  0.00000000E+00  0.00000000E+00  0.00000000E+00
  0.00000000E+00  0.00000000E+00  0.00000000E+00
