New structure
1.0
     4.0306267737999999    0.0000000000000000    0.0000000000000000
     0.0000000000000000    3.9624938964999998    0.0000000000000000
     -0.0119255044000000    0.0000000000000000    4.0135678504000003
    K   Nb    O
    1    1    3
Direct
     0.898918629         0.000000000         0.885950208
     0.411802679         0.500000000         0.374214798
     0.378479421         0.000000000         0.403915793
     0.381626695         0.500000000         0.903341055
     0.878172576         0.500000000         0.399578124