KNbO3                                   
   1.00000000000000     
     5.7678599357999998    0.0000000000000000    0.0000000000000000
    -2.8839299678999999    4.9951132298000003    0.0000000000000000
     0.0000000000000000    0.0000000000000000    6.8698532206102003
   K    Nb   O 
     3     3     9
Direct
  0.6666669849999991  0.3333329860000021  0.3195419380249618
  0.3333329860000021  0.6666669849999991  0.6528749540249663
  0.0000000000000000  0.0000000000000000  0.9862089230249609
  0.6666669849999991  0.3333329860000021  0.8316898665736616
  0.3333329860000021  0.6666669849999991  0.1650228365736623
  0.0000000000000000  0.0000000000000000  0.4983558375736621
  0.5021128355137208  0.0042256410274319  0.9696444341337909
  0.5021128355137208  0.4978871934862781  0.9696444341337909
  0.9957743879725669  0.4978871934862781  0.9696444341337909
  0.1687798205137270  0.3375586280274305  0.3029784031337925
  0.1687798205137270  0.8312201794862730  0.3029784031337925
  0.6624413719725695  0.8312201794862730  0.3029784031337925
  0.8354457915137203  0.6708926560274335  0.6363114191337971
  0.8354457915137203  0.1645541784862772  0.6363114191337971
  0.3291073739725690  0.1645541784862772  0.6363114191337971
 
  0.00000000E+00  0.00000000E+00  0.00000000E+00
  0.00000000E+00  0.00000000E+00  0.00000000E+00
  0.00000000E+00  0.00000000E+00  0.00000000E+00
  0.00000000E+00  0.00000000E+00  0.00000000E+00
  0.00000000E+00  0.00000000E+00  0.00000000E+00
  0.00000000E+00  0.00000000E+00  0.00000000E+00
  0.00000000E+00  0.00000000E+00  0.00000000E+00
  0.00000000E+00  0.00000000E+00  0.00000000E+00
  0.00000000E+00  0.00000000E+00  0.00000000E+00
  0.00000000E+00  0.00000000E+00  0.00000000E+00
  0.00000000E+00  0.00000000E+00  0.00000000E+00
  0.00000000E+00  0.00000000E+00  0.00000000E+00
  0.00000000E+00  0.00000000E+00  0.00000000E+00
  0.00000000E+00  0.00000000E+00  0.00000000E+00
  0.00000000E+00  0.00000000E+00  0.00000000E+00
