k1 nb1 o3                               
   1.00000000000000     
     4.1283042080000003    0.0000000000000000    0.0000000000000000
     0.0000000000000000    4.1283042080000003    0.0000000000000000
     0.0000000000000000    0.0000000000000000    3.9476802746575732
   K    Nb   O 
     1     1     3
Direct
  0.5000000000000000  0.5000000000000000  0.4902839699166973
  0.0000000000000000  0.0000000000000000  0.9969621213631281
  0.5000000000000000  0.0000000000000000  0.9833297073704698
  0.0000000000000000  0.5000000000000000  0.9833297073704698
  0.0000000000000000  0.0000000000000000  0.4808954079792281
 
  0.00000000E+00  0.00000000E+00  0.00000000E+00
  0.00000000E+00  0.00000000E+00  0.00000000E+00
  0.00000000E+00  0.00000000E+00  0.00000000E+00
  0.00000000E+00  0.00000000E+00  0.00000000E+00
  0.00000000E+00  0.00000000E+00  0.00000000E+00
