k2 nb2 o6                               
   1.00000000000000     
     3.8823971316426382    0.0000000000000000    0.0000000000000000
     0.0000000000000000    5.5667724639561413    0.0000000000000000
     0.0000000000000000    0.0000000000000000    5.7825420925465956
   K    Nb   O 
     2     2     6
Direct
  0.5000000000000000  0.0000000000000000  0.4876354395261302
  0.5000000000000000  0.5000000000000000  0.9876353985261304
  0.0000000000000000  0.0000000000000000  0.0011614661845272
  0.0000000000000000  0.5000000000000000  0.5011614691845310
  0.0000000000000000  0.2488641117337735  0.2207152781275923
  0.0000000000000000  0.7511358682662248  0.2207152781275923
  0.0000000000000000  0.7488641317337752  0.7207152981275939
  0.0000000000000000  0.2511358882662265  0.7207152981275939
  0.5000000000000000  0.0000000000000000  0.9617735720341898
  0.5000000000000000  0.5000000000000000  0.4617735310341899
 
  0.00000000E+00  0.00000000E+00  0.00000000E+00
  0.00000000E+00  0.00000000E+00  0.00000000E+00
  0.00000000E+00  0.00000000E+00  0.00000000E+00
  0.00000000E+00  0.00000000E+00  0.00000000E+00
  0.00000000E+00  0.00000000E+00  0.00000000E+00
  0.00000000E+00  0.00000000E+00  0.00000000E+00
  0.00000000E+00  0.00000000E+00  0.00000000E+00
  0.00000000E+00  0.00000000E+00  0.00000000E+00
  0.00000000E+00  0.00000000E+00  0.00000000E+00
  0.00000000E+00  0.00000000E+00  0.00000000E+00
