KNbO3                                   
   1.00000000000000     
     5.5982122420999998    0.0000000000000000    0.0000000000000000
    -2.7991049289999999    4.8481919526999997    0.0000000000000000
     0.0000000000000000    0.0000000000000000    6.9909165927562480
   K    Nb   O 
     3     3     9
Direct
  0.6666669849999991  0.3333329860000021  0.3184836962684727
  0.3333329860000021  0.6666669849999991  0.6518167122684773
  0.0000000000000000  0.0000000000000000  0.9851506812684718
  0.6666669849999991  0.3333329860000021  0.8279956036225045
  0.3333329860000021  0.6666669849999991  0.1613285736225052
  0.0000000000000000  0.0000000000000000  0.4946615746225049
  0.4997831557200811  0.9995662814401740  0.9712286023696706
  0.4997831557200811  0.5002168732799177  0.9712286023696706
  0.0004337475598248  0.5002168732799177  0.9712286023696706
  0.1664501407200873  0.3328992684401726  0.3045625713696722
  0.1664501407200873  0.8335498592799127  0.3045625713696722
  0.6671007315598274  0.8335498592799127  0.3045625713696722
  0.8331161117200807  0.6662332964401756  0.6378955873696768
  0.8331161117200807  0.1668838582799168  0.6378955873696768
  0.3337667335598269  0.1668838582799168  0.6378955873696768
 
  0.00000000E+00  0.00000000E+00  0.00000000E+00
  0.00000000E+00  0.00000000E+00  0.00000000E+00
  0.00000000E+00  0.00000000E+00  0.00000000E+00
  0.00000000E+00  0.00000000E+00  0.00000000E+00
  0.00000000E+00  0.00000000E+00  0.00000000E+00
  0.00000000E+00  0.00000000E+00  0.00000000E+00
  0.00000000E+00  0.00000000E+00  0.00000000E+00
  0.00000000E+00  0.00000000E+00  0.00000000E+00
  0.00000000E+00  0.00000000E+00  0.00000000E+00
  0.00000000E+00  0.00000000E+00  0.00000000E+00
  0.00000000E+00  0.00000000E+00  0.00000000E+00
  0.00000000E+00  0.00000000E+00  0.00000000E+00
  0.00000000E+00  0.00000000E+00  0.00000000E+00
  0.00000000E+00  0.00000000E+00  0.00000000E+00
  0.00000000E+00  0.00000000E+00  0.00000000E+00
