k2 nb2 o6                               
   1.00000000000000     
     3.8427808343809784    0.0000000000000000    0.0000000000000000
     0.0000000000000000    5.5099686633035283    0.0000000000000000
     0.0000000000000000    0.0000000000000000    5.8330705063547592
   K    Nb   O 
     2     2     6
Direct
  0.5000000000000000 -0.0000000000000000  0.4886144789478381
  0.5000000000000000  0.5000000000000000  0.9886144379478382
  0.0000000000000000 -0.0000000000000000  0.0028898226591916
  0.0000000000000000  0.5000000000000000  0.5028898256591955
 -0.0000000000000000  0.2490790407071289  0.2212214918764993
  0.0000000000000000  0.7509209392928694  0.2212214918764993
 -0.0000000000000000  0.7490790607071306  0.7212215118765011
 -0.0000000000000000  0.2509209592928711  0.7212215118765011
  0.5000000000000000 -0.0000000000000000  0.9580537486399892
  0.5000000000000000  0.5000000000000000  0.4580537076399893
 
  0.00000000E+00  0.00000000E+00  0.00000000E+00
  0.00000000E+00  0.00000000E+00  0.00000000E+00
  0.00000000E+00  0.00000000E+00  0.00000000E+00
  0.00000000E+00  0.00000000E+00  0.00000000E+00
  0.00000000E+00  0.00000000E+00  0.00000000E+00
  0.00000000E+00  0.00000000E+00  0.00000000E+00
  0.00000000E+00  0.00000000E+00  0.00000000E+00
  0.00000000E+00  0.00000000E+00  0.00000000E+00
  0.00000000E+00  0.00000000E+00  0.00000000E+00
  0.00000000E+00  0.00000000E+00  0.00000000E+00
