k2 nb2 o6                               
   1.00000000000000     
     4.1200949152125963    0.0000000000000000    0.0000000000000000
     0.0000000000000000    5.9075952678718240    0.0000000000000000
     0.0000000000000000    0.0000000000000000    5.5761259606167108
   K    Nb   O 
     2     2     6
Direct
  0.5000000000000000  0.0000000000000000  0.4864499878277755
  0.5000000000000000  0.5000000000000000  0.9864499468277756
  0.0000000000000000  0.0000000000000000  0.0001036164421535
  0.0000000000000000  0.5000000000000000  0.5001036194421573
  0.0000000000000000  0.2439816721725379  0.2169333255512527
  0.0000000000000000  0.7560183078274605  0.2169333255512527
  0.0000000000000000  0.7439816921725395  0.7169333455512543
  0.0000000000000000  0.2560183278274621  0.7169333455512543
  0.5000000000000000  0.0000000000000000  0.9715807786275903
  0.5000000000000000  0.5000000000000000  0.4715807376275905
 
  0.00000000E+00  0.00000000E+00  0.00000000E+00
  0.00000000E+00  0.00000000E+00  0.00000000E+00
  0.00000000E+00  0.00000000E+00  0.00000000E+00
  0.00000000E+00  0.00000000E+00  0.00000000E+00
  0.00000000E+00  0.00000000E+00  0.00000000E+00
  0.00000000E+00  0.00000000E+00  0.00000000E+00
  0.00000000E+00  0.00000000E+00  0.00000000E+00
  0.00000000E+00  0.00000000E+00  0.00000000E+00
  0.00000000E+00  0.00000000E+00  0.00000000E+00
  0.00000000E+00  0.00000000E+00  0.00000000E+00
