k2 nb2 o6                               
   1.00000000000000     
     4.0804786179509360    0.0000000000000000    0.0000000000000000
     0.0000000000000000    5.8507914672192101    0.0000000000000000
     0.0000000000000000    0.0000000000000000    5.6003009557515773
   K    Nb   O 
     2     2     6
Direct
  0.5000000000000000  0.0000000000000000  0.4864629560552700
  0.5000000000000000  0.5000000000000000  0.9864629150552702
  0.0000000000000000  0.0000000000000000  0.9993818151678084
  0.0000000000000000  0.5000000000000000  0.4993818181678122
  0.0000000000000000  0.2453111161563228  0.2175894195802357
  0.0000000000000000  0.7546888638436755  0.2175894195802357
  0.0000000000000000  0.7453111361563245  0.7175894395802374
  0.0000000000000000  0.2546888838436772  0.7175894395802374
  0.5000000000000000  0.0000000000000000  0.9709774236164748
  0.5000000000000000  0.5000000000000000  0.4709773826164678
 
  0.00000000E+00  0.00000000E+00  0.00000000E+00
  0.00000000E+00  0.00000000E+00  0.00000000E+00
  0.00000000E+00  0.00000000E+00  0.00000000E+00
  0.00000000E+00  0.00000000E+00  0.00000000E+00
  0.00000000E+00  0.00000000E+00  0.00000000E+00
  0.00000000E+00  0.00000000E+00  0.00000000E+00
  0.00000000E+00  0.00000000E+00  0.00000000E+00
  0.00000000E+00  0.00000000E+00  0.00000000E+00
  0.00000000E+00  0.00000000E+00  0.00000000E+00
  0.00000000E+00  0.00000000E+00  0.00000000E+00
