New structure                           
   1.00000000000000     
     3.8694017028479997    0.0000000000000000    0.0000000000000000
     0.0000000000000000    3.8039941406399995    0.0000000000000000
    -0.0119255044000000    0.0000000000000000    4.1843034155185075
   K    Nb   O 
     1     1     3
Direct
  0.8908719246150064  0.0000000000000000  0.8721334365329209
  0.3921550338319025  0.5000000000000000  0.3511167556857168
  0.3861596612421893  0.0000000000000000  0.4232545677580770
  0.3903013732486222  0.5000000000000000  0.9126910708622348
  0.8895120070622635  0.5000000000000000  0.4078041471610403
 
  0.00000000E+00  0.00000000E+00  0.00000000E+00
  0.00000000E+00  0.00000000E+00  0.00000000E+00
  0.00000000E+00  0.00000000E+00  0.00000000E+00
  0.00000000E+00  0.00000000E+00  0.00000000E+00
  0.00000000E+00  0.00000000E+00  0.00000000E+00
