New structure                           
   1.00000000000000     
     4.1515455770139997    0.0000000000000000    0.0000000000000000
     0.0000000000000000    4.0813687133950003    0.0000000000000000
    -0.0119255044000000    0.0000000000000000    3.9290990683053848
   K    Nb   O 
     1     1     3
Direct
  0.9066094795496680  0.0000000000000000  0.8923333363041396
  0.4228268535684844  0.5000000000000000  0.3917486244031392
  0.3846515633165166  0.0000000000000000  0.3946802583700776
  0.3688886099820380  0.5000000000000000  0.8942182051696794
  0.8660234935832981  0.5000000000000000  0.3940195537529609
 
  0.00000000E+00  0.00000000E+00  0.00000000E+00
  0.00000000E+00  0.00000000E+00  0.00000000E+00
  0.00000000E+00  0.00000000E+00  0.00000000E+00
  0.00000000E+00  0.00000000E+00  0.00000000E+00
  0.00000000E+00  0.00000000E+00  0.00000000E+00
